120
1000
200
200
199
198
197
196
196
194
194
194
194
193
193
193
191
191
190
189
189
188
188
187
185
185
185
185
184
184
184
184
183
182
182
182
181
181
181
181
181
180
180
180
180
180
180
180
178
178
178
178
177
176
176
175
174
174
174
174
174
173
173
172
172
172
172
171
171
171
170
170
170
169
169
168
168
168
167
166
166
166
166
165
165
165
164
163
163
163
162
162
162
162
162
162
162
162
162
161
161
160
160
160
159
159
157
157
157
157
157
157
154
154
154
153
153
152
152
151
150
150
